p cnf 27 77
a 22 6 0
e 1 2 3 4 5 7 8 9 10 11 12 13 14 15 16 17 18 19 20 21 23 24 25 26 27 0
-1 -2 -3 0
1 2 -3 0
-1 2 3 0
1 -2 3 0
-4 -1 -5 0
4 1 -5 0
-4 1 5 0
4 -1 5 0
6 -3 0
6 -5 0
3 5 -6 0
-7 8 -9 0
7 -8 -9 0
-7 -8 9 0
7 8 9 0
-4 -10 0
4 -10 0
-12 -7 0
-12 -11 0
7 11 12 0
10 -12 -13 0
-10 12 -13 0
10 12 13 0
-10 -12 13 0
14 11 -15 0
-14 -11 -15 0
14 -11 15 0
-14 11 15 0
-7 -15 -16 0
7 15 -16 0
-7 15 16 0
7 -15 16 0
17 -13 0
17 -16 0
13 16 -17 0
-14 -16 -18 0
14 16 -18 0
-14 16 18 0
14 -16 18 0
-18 13 -19 0
18 -13 -19 0
-18 -13 19 0
18 13 19 0
-17 -19 -20 0
17 19 -20 0
-17 19 20 0
17 -19 20 0
-22 4 0
-22 21 0
-4 -21 22 0
-10 -15 -23 0
10 15 -23 0
-10 15 23 0
10 -15 23 0
-22 -23 -24 0
22 23 -24 0
-22 23 24 0
22 -23 24 0
-25 20 0
-25 -24 0
-20 24 25 0
-9 -25 -26 0
9 25 -26 0
-9 25 26 0
9 -25 26 0
-6 -26 -27 0
6 26 -27 0
-6 26 27 0
6 -26 27 0
-17 -11 22 -10 -4 9 26 0
-22 1 -23 11 -10 -7 -21 -13 0
4 -27 1 5 13 19 -16 -22 0
16 12 -23 18 21 -6 0
-2 13 21 0
20 7 -17 -18 0
26 -18 0
27 0
